p cnf 160 804
c p weight 12 0 0
c p weight -12 1 0
c p weight 13 1.0 0
c p weight -13 1 0
c p weight 22 0 0
c p weight -22 1 0
c p weight 23 1.0 0
c p weight -23 1 0
c p weight 31 0.2627710193218413 0
c p weight -31 1 0
c p weight 32 0.9648582234735632 0
c p weight -32 1 0
c p weight 40 0 0
c p weight -40 1 0
c p weight 41 1.0 0
c p weight -41 1 0
c p weight 47 0 0
c p weight -47 1 0
c p weight 48 1.0 0
c p weight -48 1 0
c p weight 55 0 0
c p weight -55 1 0
c p weight 56 1.0 0
c p weight -56 1 0
c p weight 66 -0.996765340157305 0
c p weight -66 1 0
c p weight 67 -0.08036701226928872 0
c p weight -67 1 0
c p weight 73 0 0
c p weight -73 1 0
c p weight 74 1.0 0
c p weight -74 1 0
c p weight 77 0 0
c p weight -77 1 0
c p weight 78 1.0 0
c p weight -78 1 0
c p weight 81 -0.6551798220730618 0
c p weight -81 1 0
c p weight 82 0.7554729649354178 0
c p weight -82 1 0
c p weight 87 0 0
c p weight -87 1 0
c p weight 88 1.0 0
c p weight -88 1 0
c p weight 91 1.0 0
c p weight -91 1 0
c p weight 92 0 0
c p weight -92 1 0
c p weight 95 0 0
c p weight -95 1 0
c p weight 96 1.0 0
c p weight -96 1 0
c p weight 99 0 0
c p weight -99 1 0
c p weight 100 -1.0 0
c p weight -100 1 0
c p weight 106 1.0 0
c p weight -106 1 0
c p weight 107 0 0
c p weight -107 1 0
c p weight 110 0 0
c p weight -110 1 0
c p weight 111 1.0 0
c p weight -111 1 0
c p weight 114 0.9908580832591711 0
c p weight -114 1 0
c p weight 115 0.13490833495363236 0
c p weight -115 1 0
c p weight 118 0 0
c p weight -118 1 0
c p weight 119 1.0 0
c p weight -119 1 0
c p weight 122 -1.0 0
c p weight -122 1 0
c p weight 123 0 0
c p weight -123 1 0
c p weight 126 1.0 0
c p weight -126 1 0
c p weight 127 0 0
c p weight -127 1 0
c p weight 130 0 0
c p weight -130 1 0
c p weight 131 1.0 0
c p weight -131 1 0
c p weight 134 0.990858083259171 0
c p weight -134 1 0
c p weight 135 -0.13490833495363302 0
c p weight -135 1 0
c p weight 138 0 0
c p weight -138 1 0
c p weight 139 1.0 0
c p weight -139 1 0
c p weight 142 -1.0 0
c p weight -142 1 0
c p weight 143 0 0
c p weight -143 1 0
c p weight 149 -0.8900549580826667 0
c p weight -149 1 0
c p weight 150 -0.4558532347065912 0
c p weight -150 1 0
c p weight 153 0 0
c p weight -153 1 0
c p weight 154 1.0 0
c p weight -154 1 0
c p weight 157 0 0
c p weight -157 1 0
c p weight 158 1.0 0
c p weight -158 1 0
6 -5 1 0
-6 5 1 0
6 -5 -2 0
-6 5 -2 0
6 5 -1 2 0
-6 -5 -1 2 0
7 1 -2 0
7 -1 2 0
-7 1 2 0
-7 -1 -2 0
8 -6 1 0
8 -6 7 0
-8 6 1 0
-8 6 7 0
8 6 -1 -7 0
-8 -6 -1 -7 0
9 1 -7 0
9 -1 7 0
-9 1 7 0
-9 -1 -7 0
10 11 -8 0
10 -8 9 0
-10 11 8 0
-10 8 9 0
10 -8 -1 0
-10 8 -1 0
10 -11 8 1 -9 0
-10 -11 -8 1 -9 0
11 -1 9 0
-11 1 9 0
-12 9 0
11 -12 -1 0
-11 -12 1 0
11 12 1 -9 0
-11 12 -1 -9 0
-13 9 0
11 -13 1 0
-11 -13 -1 0
11 13 -1 -9 0
-11 13 1 -9 0
14 -10 11 0
14 -10 9 0
-14 10 11 0
-14 10 9 0
14 10 -11 -9 0
-14 -10 -11 -9 0
15 11 -9 0
15 -11 9 0
-15 11 9 0
-15 -11 -9 0
16 -14 3 0
-16 14 3 0
16 -14 -4 0
-16 14 -4 0
16 14 -3 4 0
-16 -14 -3 4 0
17 3 -4 0
17 -3 4 0
-17 3 4 0
-17 -3 -4 0
18 -16 3 0
18 -16 17 0
-18 16 3 0
-18 16 17 0
18 16 -3 -17 0
-18 -16 -3 -17 0
19 3 -17 0
19 -3 17 0
-19 3 17 0
-19 -3 -17 0
20 21 -18 0
20 -18 19 0
-20 21 18 0
-20 18 19 0
20 -18 -3 0
-20 18 -3 0
20 -21 18 3 -19 0
-20 -21 -18 3 -19 0
21 -3 19 0
-21 3 19 0
-22 19 0
21 -22 -3 0
-21 -22 3 0
21 22 3 -19 0
-21 22 -3 -19 0
-23 19 0
21 -23 3 0
-21 -23 -3 0
21 23 -3 -19 0
-21 23 3 -19 0
24 -20 21 0
24 -20 19 0
-24 20 21 0
-24 20 19 0
24 20 -21 -19 0
-24 -20 -21 -19 0
25 21 -19 0
25 -21 19 0
-25 21 19 0
-25 -21 -19 0
26 -24 11 0
26 -24 25 0
-26 24 11 0
-26 24 25 0
26 -24 21 -15 0
26 -24 -21 15 0
-26 24 21 -15 0
-26 24 -21 15 0
26 24 -11 21 15 -25 0
26 24 -11 -21 -15 -25 0
-26 -24 -11 21 15 -25 0
-26 -24 -11 -21 -15 -25 0
28 11 -21 0
28 -11 21 0
-28 11 21 0
-28 -11 -21 0
27 15 -25 0
27 -15 25 0
-27 15 25 0
-27 -15 -25 0
29 -26 28 0
29 -26 25 0
-29 26 28 0
-29 26 25 0
29 -30 -26 0
-29 -30 26 0
29 30 26 -28 -25 0
-29 30 -26 -28 -25 0
30 28 -25 0
-30 28 25 0
-31 28 0
30 -31 -25 0
-30 -31 25 0
30 31 -28 25 0
-30 31 -28 -25 0
-32 28 0
30 -32 25 0
-30 -32 -25 0
30 32 -28 -25 0
-30 32 -28 25 0
33 -29 11 0
33 -29 30 0
-33 29 11 0
-33 29 30 0
33 -29 28 -27 0
33 -29 -28 27 0
-33 29 28 -27 0
-33 29 -28 27 0
33 29 -11 28 27 -30 0
33 29 -11 -28 -27 -30 0
-33 -29 -11 28 27 -30 0
-33 -29 -11 -28 -27 -30 0
35 11 -28 0
35 -11 28 0
-35 11 28 0
-35 -11 -28 0
34 27 -30 0
34 -27 30 0
-34 27 30 0
-34 -27 -30 0
36 -33 11 0
36 -33 34 0
-36 33 11 0
-36 33 34 0
36 33 -11 -34 0
-36 -33 -11 -34 0
37 11 -34 0
37 -11 34 0
-37 11 34 0
-37 -11 -34 0
38 39 -36 0
38 -36 37 0
-38 39 36 0
-38 36 37 0
38 -36 -11 0
-38 36 -11 0
38 -39 36 11 -37 0
-38 -39 -36 11 -37 0
39 -11 37 0
-39 11 37 0
-40 37 0
39 -40 -11 0
-39 -40 11 0
39 40 11 -37 0
-39 40 -11 -37 0
-41 37 0
39 -41 11 0
-39 -41 -11 0
39 41 -11 -37 0
-39 41 11 -37 0
42 -38 39 0
42 -38 37 0
-42 38 39 0
-42 38 37 0
42 38 -39 -37 0
-42 -38 -39 -37 0
43 39 -37 0
43 -39 37 0
-43 39 37 0
-43 -39 -37 0
44 42 -39 0
44 -42 39 0
-44 42 39 0
-44 -42 -39 0
45 46 -44 0
45 -44 43 0
-45 46 44 0
-45 44 43 0
45 -44 -39 0
-45 44 -39 0
45 -46 44 39 -43 0
-45 -46 -44 39 -43 0
46 -39 43 0
-46 39 43 0
-47 43 0
46 -47 -39 0
-46 -47 39 0
46 47 39 -43 0
-46 47 -39 -43 0
-48 43 0
46 -48 39 0
-46 -48 -39 0
46 48 -39 -43 0
-46 48 39 -43 0
49 -45 46 0
49 -45 43 0
-49 45 46 0
-49 45 43 0
49 45 -46 -43 0
-49 -45 -46 -43 0
50 46 -43 0
50 -46 43 0
-50 46 43 0
-50 -46 -43 0
51 -49 35 0
51 -49 30 0
-51 49 35 0
-51 49 30 0
51 49 -35 -30 0
-51 -49 -35 -30 0
52 35 -30 0
52 -35 30 0
-52 35 30 0
-52 -35 -30 0
53 54 -51 0
53 -51 52 0
-53 54 51 0
-53 51 52 0
53 -51 -35 0
-53 51 -35 0
53 -54 51 35 -52 0
-53 -54 -51 35 -52 0
54 -35 52 0
-54 35 52 0
-55 52 0
54 -55 -35 0
-54 -55 35 0
54 55 35 -52 0
-54 55 -35 -52 0
-56 52 0
54 -56 35 0
-54 -56 -35 0
54 56 -35 -52 0
-54 56 35 -52 0
57 -53 54 0
57 -53 52 0
-57 53 54 0
-57 53 52 0
57 53 -54 -52 0
-57 -53 -54 -52 0
58 54 -52 0
58 -54 52 0
-58 54 52 0
-58 -54 -52 0
59 -57 54 0
59 -57 58 0
-59 57 54 0
-59 57 58 0
59 57 -54 -58 0
-59 -57 -54 -58 0
60 54 -58 0
60 -54 58 0
-60 54 58 0
-60 -54 -58 0
61 -59 54 0
61 -59 50 0
-61 59 54 0
-61 59 50 0
61 -59 46 -60 0
61 -59 -46 60 0
-61 59 46 -60 0
-61 59 -46 60 0
61 59 -54 46 60 -50 0
61 59 -54 -46 -60 -50 0
-61 -59 -54 46 60 -50 0
-61 -59 -54 -46 -60 -50 0
63 54 -46 0
63 -54 46 0
-63 54 46 0
-63 -54 -46 0
62 60 -50 0
62 -60 50 0
-62 60 50 0
-62 -60 -50 0
64 -61 63 0
64 -61 50 0
-64 61 63 0
-64 61 50 0
64 -65 -61 0
-64 -65 61 0
64 65 61 -63 -50 0
-64 65 -61 -63 -50 0
65 63 -50 0
-65 63 50 0
-66 63 0
65 -66 -50 0
-65 -66 50 0
65 66 -63 50 0
-65 66 -63 -50 0
-67 63 0
65 -67 50 0
-65 -67 -50 0
65 67 -63 -50 0
-65 67 -63 50 0
68 -64 54 0
68 -64 65 0
-68 64 54 0
-68 64 65 0
68 -64 63 -62 0
68 -64 -63 62 0
-68 64 63 -62 0
-68 64 -63 62 0
68 64 -54 63 62 -65 0
68 64 -54 -63 -62 -65 0
-68 -64 -54 63 62 -65 0
-68 -64 -54 -63 -62 -65 0
70 54 -63 0
70 -54 63 0
-70 54 63 0
-70 -54 -63 0
69 62 -65 0
69 -62 65 0
-69 62 65 0
-69 -62 -65 0
71 -68 70 0
71 -68 65 0
-71 68 70 0
-71 68 65 0
71 -72 -68 0
-71 -72 68 0
71 72 68 -70 -65 0
-71 72 -68 -70 -65 0
72 70 -65 0
-72 70 65 0
-73 70 0
72 -73 -65 0
-72 -73 65 0
72 73 -70 65 0
-72 73 -70 -65 0
-74 70 0
72 -74 65 0
-72 -74 -65 0
72 74 -70 -65 0
-72 74 -70 65 0
75 76 -71 0
75 -71 72 0
-75 76 71 0
-75 71 72 0
75 -71 -70 0
-75 71 -70 0
75 -76 71 70 -72 0
-75 -76 -71 70 -72 0
76 -70 72 0
-76 70 72 0
-77 72 0
76 -77 -70 0
-76 -77 70 0
76 77 70 -72 0
-76 77 -70 -72 0
-78 72 0
76 -78 70 0
-76 -78 -70 0
76 78 -70 -72 0
-76 78 70 -72 0
79 -75 76 0
79 -75 72 0
-79 75 76 0
-79 75 72 0
79 -80 -75 0
-79 -80 75 0
79 80 75 -76 -72 0
-79 80 -75 -76 -72 0
80 76 -72 0
-80 76 72 0
-81 76 0
80 -81 -72 0
-80 -81 72 0
80 81 -76 72 0
-80 81 -76 -72 0
-82 76 0
80 -82 72 0
-80 -82 -72 0
80 82 -76 -72 0
-80 82 -76 72 0
83 -79 54 0
-83 79 54 0
83 -79 -69 0
-83 79 -69 0
83 79 -54 69 0
-83 -79 -54 69 0
84 54 -69 0
84 -54 69 0
-84 54 69 0
-84 -54 -69 0
85 86 -83 0
85 -83 84 0
-85 86 83 0
-85 83 84 0
85 -83 -54 0
-85 83 -54 0
85 -86 83 54 -84 0
-85 -86 -83 54 -84 0
86 -54 84 0
-86 54 84 0
-87 84 0
86 -87 -54 0
-86 -87 54 0
86 87 54 -84 0
-86 87 -54 -84 0
-88 84 0
86 -88 54 0
-86 -88 -54 0
86 88 -54 -84 0
-86 88 54 -84 0
89 -85 86 0
89 -85 84 0
-89 85 86 0
-89 85 84 0
89 -90 -85 0
-89 -90 85 0
89 90 85 -86 -84 0
-89 90 -85 -86 -84 0
90 86 -84 0
-90 86 84 0
-91 86 0
90 -91 -84 0
-90 -91 84 0
90 91 -86 84 0
-90 91 -86 -84 0
-92 86 0
90 -92 84 0
-90 -92 -84 0
90 92 -86 -84 0
-90 92 -86 84 0
93 94 -89 0
93 -89 90 0
-93 94 89 0
-93 89 90 0
93 -89 -86 0
-93 89 -86 0
93 -94 89 86 -90 0
-93 -94 -89 86 -90 0
94 -86 90 0
-94 86 90 0
-95 90 0
94 -95 -86 0
-94 -95 86 0
94 95 86 -90 0
-94 95 -86 -90 0
-96 90 0
94 -96 86 0
-94 -96 -86 0
94 96 -86 -90 0
-94 96 86 -90 0
97 -93 94 0
97 -93 90 0
-97 93 94 0
-97 93 90 0
97 -98 -93 0
-97 -98 93 0
97 98 93 -94 -90 0
-97 98 -93 -94 -90 0
98 94 -90 0
-98 94 90 0
-99 94 0
98 -99 -90 0
-98 -99 90 0
98 99 -94 90 0
-98 99 -94 -90 0
-100 94 0
98 -100 90 0
-98 -100 -90 0
98 100 -94 -90 0
-98 100 -94 90 0
101 -97 94 0
101 -97 80 0
-101 97 94 0
-101 97 80 0
101 -97 76 -98 0
101 -97 -76 98 0
-101 97 76 -98 0
-101 97 -76 98 0
101 97 -94 76 98 -80 0
101 97 -94 -76 -98 -80 0
-101 -97 -94 76 98 -80 0
-101 -97 -94 -76 -98 -80 0
103 94 -76 0
103 -94 76 0
-103 94 76 0
-103 -94 -76 0
102 98 -80 0
102 -98 80 0
-102 98 80 0
-102 -98 -80 0
104 -101 103 0
104 -101 80 0
-104 101 103 0
-104 101 80 0
104 -105 -101 0
-104 -105 101 0
104 105 101 -103 -80 0
-104 105 -101 -103 -80 0
105 103 -80 0
-105 103 80 0
-106 103 0
105 -106 -80 0
-105 -106 80 0
105 106 -103 80 0
-105 106 -103 -80 0
-107 103 0
105 -107 80 0
-105 -107 -80 0
105 107 -103 -80 0
-105 107 -103 80 0
108 109 -104 0
108 -104 105 0
-108 109 104 0
-108 104 105 0
108 -104 -103 0
-108 104 -103 0
108 -109 104 103 -105 0
-108 -109 -104 103 -105 0
109 -103 105 0
-109 103 105 0
-110 105 0
109 -110 -103 0
-109 -110 103 0
109 110 103 -105 0
-109 110 -103 -105 0
-111 105 0
109 -111 103 0
-109 -111 -103 0
109 111 -103 -105 0
-109 111 103 -105 0
112 -108 109 0
112 -108 105 0
-112 108 109 0
-112 108 105 0
112 -113 -108 0
-112 -113 108 0
112 113 108 -109 -105 0
-112 113 -108 -109 -105 0
113 109 -105 0
-113 109 105 0
-114 109 0
113 -114 -105 0
-113 -114 105 0
113 114 -109 105 0
-113 114 -109 -105 0
-115 109 0
113 -115 105 0
-113 -115 -105 0
113 115 -109 -105 0
-113 115 -109 105 0
116 117 -112 0
116 -112 113 0
-116 117 112 0
-116 112 113 0
116 -112 -109 0
-116 112 -109 0
116 -117 112 109 -113 0
-116 -117 -112 109 -113 0
117 -109 113 0
-117 109 113 0
-118 113 0
117 -118 -109 0
-117 -118 109 0
117 118 109 -113 0
-117 118 -109 -113 0
-119 113 0
117 -119 109 0
-117 -119 -109 0
117 119 -109 -113 0
-117 119 109 -113 0
120 -116 117 0
120 -116 113 0
-120 116 117 0
-120 116 113 0
120 -121 -116 0
-120 -121 116 0
120 121 116 -117 -113 0
-120 121 -116 -117 -113 0
121 117 -113 0
-121 117 113 0
-122 117 0
121 -122 -113 0
-121 -122 113 0
121 122 -117 113 0
-121 122 -117 -113 0
-123 117 0
121 -123 113 0
-121 -123 -113 0
121 123 -117 -113 0
-121 123 -117 113 0
124 -120 94 0
124 -120 102 0
-124 120 94 0
-124 120 102 0
124 -125 -120 0
-124 -125 120 0
124 125 120 -94 -102 0
-124 125 -120 -94 -102 0
125 94 -102 0
-125 94 102 0
-126 94 0
125 -126 -102 0
-125 -126 102 0
125 126 -94 102 0
-125 126 -94 -102 0
-127 94 0
125 -127 102 0
-125 -127 -102 0
125 127 -94 -102 0
-125 127 -94 102 0
128 129 -124 0
128 -124 125 0
-128 129 124 0
-128 124 125 0
128 -124 -94 0
-128 124 -94 0
128 -129 124 94 -125 0
-128 -129 -124 94 -125 0
129 -94 125 0
-129 94 125 0
-130 125 0
129 -130 -94 0
-129 -130 94 0
129 130 94 -125 0
-129 130 -94 -125 0
-131 125 0
129 -131 94 0
-129 -131 -94 0
129 131 -94 -125 0
-129 131 94 -125 0
132 -128 129 0
132 -128 125 0
-132 128 129 0
-132 128 125 0
132 -133 -128 0
-132 -133 128 0
132 133 128 -129 -125 0
-132 133 -128 -129 -125 0
133 129 -125 0
-133 129 125 0
-134 129 0
133 -134 -125 0
-133 -134 125 0
133 134 -129 125 0
-133 134 -129 -125 0
-135 129 0
133 -135 125 0
-133 -135 -125 0
133 135 -129 -125 0
-133 135 -129 125 0
136 137 -132 0
136 -132 133 0
-136 137 132 0
-136 132 133 0
136 -132 -129 0
-136 132 -129 0
136 -137 132 129 -133 0
-136 -137 -132 129 -133 0
137 -129 133 0
-137 129 133 0
-138 133 0
137 -138 -129 0
-137 -138 129 0
137 138 129 -133 0
-137 138 -129 -133 0
-139 133 0
137 -139 129 0
-137 -139 -129 0
137 139 -129 -133 0
-137 139 129 -133 0
140 -136 137 0
140 -136 133 0
-140 136 137 0
-140 136 133 0
140 -141 -136 0
-140 -141 136 0
140 141 136 -137 -133 0
-140 141 -136 -137 -133 0
141 137 -133 0
-141 137 133 0
-142 137 0
141 -142 -133 0
-141 -142 133 0
141 142 -137 133 0
-141 142 -137 -133 0
-143 137 0
141 -143 133 0
-141 -143 -133 0
141 143 -137 -133 0
-141 143 -137 133 0
144 -140 137 0
144 -140 121 0
-144 140 137 0
-144 140 121 0
144 -140 117 -141 0
144 -140 -117 141 0
-144 140 117 -141 0
-144 140 -117 141 0
144 140 -137 117 141 -121 0
144 140 -137 -117 -141 -121 0
-144 -140 -137 117 141 -121 0
-144 -140 -137 -117 -141 -121 0
146 137 -117 0
146 -137 117 0
-146 137 117 0
-146 -137 -117 0
145 141 -121 0
145 -141 121 0
-145 141 121 0
-145 -141 -121 0
147 -144 146 0
147 -144 121 0
-147 144 146 0
-147 144 121 0
147 -148 -144 0
-147 -148 144 0
147 148 144 -146 -121 0
-147 148 -144 -146 -121 0
148 146 -121 0
-148 146 121 0
-149 146 0
148 -149 -121 0
-148 -149 121 0
148 149 -146 121 0
-148 149 -146 -121 0
-150 146 0
148 -150 121 0
-148 -150 -121 0
148 150 -146 -121 0
-148 150 -146 121 0
151 -147 137 0
151 -147 145 0
-151 147 137 0
-151 147 145 0
151 -152 -147 0
-151 -152 147 0
151 152 147 -137 -145 0
-151 152 -147 -137 -145 0
152 137 -145 0
-152 137 145 0
-153 137 0
152 -153 -145 0
-152 -153 145 0
152 153 -137 145 0
-152 153 -137 -145 0
-154 137 0
152 -154 145 0
-152 -154 -145 0
152 154 -137 -145 0
-152 154 -137 145 0
155 156 -151 0
155 -151 152 0
-155 156 151 0
-155 151 152 0
155 -151 -137 0
-155 151 -137 0
155 -156 151 137 -152 0
-155 -156 -151 137 -152 0
156 -137 152 0
-156 137 152 0
-157 152 0
156 -157 -137 0
-156 -157 137 0
156 157 137 -152 0
-156 157 -137 -152 0
-158 152 0
156 -158 137 0
-156 -158 -137 0
156 158 -137 -152 0
-156 158 137 -152 0
159 -155 156 0
-159 155 156 0
159 -155 -152 0
-159 155 -152 0
159 155 -156 152 0
-159 -155 -156 152 0
160 156 -152 0
160 -156 152 0
-160 156 152 0
-160 -156 -152 0
